c Generated map
c Size: 13 * 13, weights in range: 1 to 10, walls: True, with ratio 0.4
c dim 3 of 3
c
p sp 169 114
c graph contains 169 nodes and 114 arcs
c
a 5 6 3
a 6 5 3
a 6 19 4
a 19 6 4
a 8 9 6
a 9 8 6
a 9 22 9
a 22 9 9
a 11 24 3
a 24 11 3
a 16 17 10
a 17 16 10
a 17 30 1
a 30 17 1
a 24 25 10
a 25 24 10
a 25 38 1
a 38 25 1
a 27 40 4
a 40 27 4
a 30 43 8
a 43 30 8
a 30 31 5
a 31 30 5
a 31 44 1
a 44 31 1
a 33 46 10
a 46 33 10
a 33 34 8
a 34 33 8
a 38 51 1
a 51 38 1
a 38 39 10
a 39 38 10
a 40 53 8
a 53 40 8
a 43 44 6
a 44 43 6
a 44 57 4
a 57 44 4
a 46 59 1
a 59 46 1
a 51 64 2
a 64 51 2
a 53 66 2
a 66 53 2
a 57 70 5
a 70 57 5
a 57 58 5
a 58 57 5
a 58 71 10
a 71 58 10
a 58 59 2
a 59 58 2
a 59 72 4
a 72 59 4
a 62 75 3
a 75 62 3
a 62 63 2
a 63 62 2
a 63 76 2
a 76 63 2
a 63 64 2
a 64 63 2
a 64 77 8
a 77 64 8
a 66 67 2
a 67 66 2
a 67 80 7
a 80 67 7
a 69 70 6
a 70 69 6
a 70 71 6
a 71 70 6
a 71 84 10
a 84 71 10
a 71 72 2
a 72 71 2
a 72 85 2
a 85 72 2
a 75 88 2
a 88 75 2
a 75 76 2
a 76 75 2
a 76 89 2
a 89 76 2
a 76 77 9
a 77 76 9
a 77 90 8
a 90 77 8
a 84 97 1
a 97 84 1
a 84 85 9
a 85 84 9
a 85 98 8
a 98 85 8
a 85 86 7
a 86 85 7
a 86 87 1
a 87 86 1
a 87 88 1
a 88 87 1
a 88 101 3
a 101 88 3
a 88 89 2
a 89 88 2
a 89 102 3
a 102 89 3
a 89 90 5
a 90 89 5
a 90 91 9
a 91 90 9
a 91 104 5
a 104 91 5
a 94 107 6
a 107 94 6
a 94 95 3
a 95 94 3
a 95 108 4
a 108 95 4
a 95 96 7
a 96 95 7
a 96 109 2
a 109 96 2
a 96 97 1
a 97 96 1
a 97 110 2
a 110 97 2
a 97 98 6
a 98 97 6
a 101 102 9
a 102 101 9
a 102 115 5
a 115 102 5
a 105 118 3
a 118 105 3
a 105 106 3
a 106 105 3
a 106 119 2
a 119 106 2
a 106 107 2
a 107 106 2
a 107 120 1
a 120 107 1
a 107 108 3
a 108 107 3
a 108 121 3
a 121 108 3
a 108 109 10
a 109 108 10
a 109 122 4
a 122 109 4
a 109 110 7
a 110 109 7
a 110 123 7
a 123 110 7
a 115 128 10
a 128 115 10
a 115 116 9
a 116 115 9
a 116 129 5
a 129 116 5
a 118 131 7
a 131 118 7
a 118 119 6
a 119 118 6
a 119 120 9
a 120 119 9
a 120 133 1
a 133 120 1
a 120 121 3
a 121 120 3
a 121 134 1
a 134 121 1
a 121 122 6
a 122 121 6
a 122 123 3
a 123 122 3
a 123 136 5
a 136 123 5
a 123 124 10
a 124 123 10
a 124 137 5
a 137 124 5
a 126 139 3
a 139 126 3
a 128 141 10
a 141 128 10
a 128 129 4
a 129 128 4
a 131 144 10
a 144 131 10
a 133 146 1
a 146 133 1
a 133 134 6
a 134 133 6
a 134 147 7
a 147 134 7
a 136 149 7
a 149 136 7
a 136 137 9
a 137 136 9
a 139 140 3
a 140 139 3
a 140 141 8
a 141 140 8
a 141 154 9
a 154 141 9
a 144 157 5
a 157 144 5
a 144 145 8
a 145 144 8
a 145 146 9
a 146 145 9
a 146 147 8
a 147 146 8
a 149 162 7
a 162 149 7
a 154 167 3
a 167 154 3
a 161 162 7
a 162 161 7
a 166 167 10
a 167 166 10
a 167 168 7
a 168 167 7
a 168 169 6
a 169 168 6
